(set-option :print-success false)
(set-logic QF_UF)
(declare-sort x58 0)
(declare-sort x82 0)
(declare-fun x101 () x82)
(declare-fun x155 (x82 x82) x82)
(declare-fun x61 (x82 x82) x82)
(declare-fun x152 () x82)
(declare-fun x26 () x82)
(declare-fun x133 () x82)
(declare-fun x86 () x82)
(assert (or (and (= x26 (x61 (x61 x26 x26) x26)) (and (and (and (= (x61 (x61 x133 x26) x26) x133) (= x101 (x61 (x61 x101 x26) x26))) (= x86 (x61 (x61 x86 x26) x26))) (= x152 (x61 (x61 x152 x26) x26)))) (or (and (= (x61 (x61 x26 x152) x152) x26) (and (= (x61 (x61 x152 x152) x152) x152) (and (= x86 (x61 (x61 x86 x152) x152)) (and (= x101 (x61 (x61 x101 x152) x152)) (= (x61 (x61 x133 x152) x152) x133))))) (or (and (= (x61 (x61 x26 x86) x86) x26) (and (and (and (= x101 (x61 (x61 x101 x86) x86)) (= x133 (x61 (x61 x133 x86) x86))) (= x86 (x61 (x61 x86 x86) x86))) (= x152 (x61 (x61 x152 x86) x86)))) (or (and (and (and (= x86 (x61 (x61 x86 x101) x101)) (and (= x133 (x61 (x61 x133 x101) x101)) (= (x61 (x61 x101 x101) x101) x101))) (= x152 (x61 (x61 x152 x101) x101))) (= (x61 (x61 x26 x101) x101) x26)) (and (= (x61 (x61 x26 x133) x133) x26) (and (and (= x86 (x61 (x61 x86 x133) x133)) (and (= x133 (x61 (x61 x133 x133) x133)) (= (x61 (x61 x101 x133) x133) x101))) (= (x61 (x61 x152 x133) x133) x152))))))))
(assert (and (and (= (x61 x26 x101) x152) (and (= x133 (x61 x86 x26)) (= x101 (x61 x86 x86)))) (= (x61 x86 x101) x26)))
(assert (let ((x45 (x61 x152 x101)) (x8 (x61 x26 x152)) (x142 (x61 x133 x86)) (x30 (x61 x133 x133)) (x67 (x61 x133 x152)) (x129 (x61 x26 x86)) (x38 (x61 x152 x152)) (x135 (x61 x86 x152)) (x98 (x61 x152 x133)) (x140 (x61 x133 x26)) (x77 (x61 x101 x152)) (x12 (x61 x101 x133)) (x116 (x61 x152 x86)) (x78 (x61 x86 x133)) (x106 (x61 x133 x101)) (x112 (x61 x26 x101)) (x137 (x61 x86 x86)) (x84 (x61 x101 x86)) (x55 (x61 x101 x26)) (x117 (x61 x26 x26)) (x48 (x61 x101 x101)) (x111 (x61 x152 x26)) (x24 (x61 x86 x101)) (x138 (x61 x86 x26)) (x107 (x61 x26 x133))) (or (and (not (= (x61 x117 x117) x26)) (and (not (= (x61 x111 x111) x152)) (and (and (not (= x101 (x61 x55 x55))) (not (= x133 (x61 x140 x140)))) (not (= x86 (x61 x138 x138)))))) (or (or (or (and (and (not (= x152 (x61 x45 x45))) (and (and (not (= x133 (x61 x106 x106))) (not (= (x61 x48 x48) x101))) (not (= x86 (x61 x24 x24))))) (not (= x26 (x61 x112 x112)))) (and (and (and (and (not (= (x61 x30 x30) x133)) (not (= x101 (x61 x12 x12)))) (not (= x86 (x61 x78 x78)))) (not (= x152 (x61 x98 x98)))) (not (= x26 (x61 x107 x107))))) (and (not (= (x61 x129 x129) x26)) (and (and (and (not (= (x61 x84 x84) x101)) (not (= x133 (x61 x142 x142)))) (not (= x86 (x61 x137 x137)))) (not (= (x61 x116 x116) x152))))) (and (not (= (x61 x8 x8) x26)) (and (not (= (x61 x38 x38) x152)) (and (and (not (= (x61 x67 x67) x133)) (not (= x101 (x61 x77 x77)))) (not (= x86 (x61 x135 x135))))))))))
(assert (let ((x140 (x61 x133 x26)) (x56 (x61 x26 x133)) (x85 (x61 x26 x152)) (x71 (x61 x26 x26)) (x112 (x61 x101 x152)) (x12 (x61 x101 x26)) (x151 (x61 x86 x86)) (x98 (x61 x86 x101)) (x24 (x61 x101 x133)) (x8 (x61 x133 x86)) (x106 (x61 x101 x101)) (x55 (x61 x133 x152)) (x45 (x61 x101 x86)) (x107 (x61 x152 x101)) (x23 (x61 x152 x152)) (x87 (x61 x152 x26)) (x103 (x61 x152 x86)) (x83 (x61 x26 x86)) (x47 (x61 x86 x26)) (x78 (x61 x133 x101)) (x84 (x61 x26 x101)) (x127 (x61 x152 x133)) (x38 (x61 x133 x133)) (x109 (x61 x86 x152)) (x117 (x61 x86 x133))) (let ((x88 (= x152 x38)) (x6 (= x26 x109)) (x90 (= x152 x151)) (x75 (= x26 x24)) (x77 (= x24 x101)) (x94 (= x84 x26)) (x27 (= x140 x86)) (x141 (= x101 x8)) (x43 (= x98 x86)) (x105 (= x127 x101)) (x118 (= x140 x152)) (x1 (= x133 x71)) (x154 (= x101 x87)) (x102 (= x47 x86)) (x92 (= x107 x133)) (x5 (= x152 x8)) (x29 (= x152 x109)) (x124 (= x152 x83)) (x17 (= x26 x23)) (x64 (= x86 x87)) (x20 (= x133 x23)) (x25 (= x133 x151)) (x139 (= x26 x55)) (x54 (= x152 x47)) (x100 (= x8 x133)) (x143 (= x109 x133)) (x79 (= x133 x85)) (x21 (= x133 x140)) (x51 (= x55 x86)) (x111 (= x38 x133)) (x57 (= x112 x101)) (x33 (= x47 x101)) (x50 (= x86 x38)) (x115 (= x55 x152)) (x132 (= x127 x152)) (x15 (= x12 x152)) (x95 (= x117 x26)) (x10 (= x101 x103)) (x3 (= x45 x101)) (x59 (= x133 x83)) (x22 (= x109 x101)) (x146 (= x87 x133)) (x48 (= x101 x106)) (x158 (= x56 x133)) (x68 (= x87 x26)) (x97 (= x12 x133)) (x108 (= x101 x71)) (x9 (= x101 x98)) (x81 (= x152 x117)) (x130 (= x56 x26)) (x80 (= x8 x26)) (x31 (= x133 x47)) (x113 (= x86 x45)) (x13 (= x151 x26)) (x42 (= x86 x103)) (x104 (= x23 x86)) (x136 (= x152 x23)) (x129 (= x78 x101)) (x156 (= x152 x112)) (x121 (= x109 x86)) (x67 (= x38 x101)) (x149 (= x83 x101)) (x114 (= x8 x86)) (x74 (= x84 x133)) (x66 (= x117 x101)) (x72 (= x24 x86)) (x70 (= x101 x23)) (x44 (= x127 x86)) (x142 (= x106 x86)) (x120 (= x140 x26)) (x89 (= x45 x26)) (x60 (= x152 x71)) (x137 (= x152 x106)) (x122 (= x112 x86)) (x148 (= x101 x84)) (x32 (= x107 x152)) (x52 (= x86 x56)) (x63 (= x85 x101)) (x138 (= x133 x24)) (x110 (= x101 x55)) (x125 (= x127 x133)) (x4 (= x152 x103)) (x28 (= x86 x78)) (x19 (= x86 x107)) (x35 (= x56 x152)) (x126 (= x103 x26)) (x116 (= x26 x106)) (x134 (= x101 x56)) (x153 (= x26 x107)) (x36 (= x85 x86)) (x18 (= x26 x47)) (x53 (= x152 x84)) (x93 (= x133 x117)) (x40 (= x86 x12)) (x62 (= x98 x133)) (x14 (= x151 x101)) (x144 (= x12 x26)) (x145 (= x45 x133)) (x39 (= x98 x152)) (x30 (= x133 x106)) (x2 (= x140 x101)) (x65 (= x45 x152)) (x99 (= x26 x78)) (x49 (= x101 x12)) (x73 (= x151 x86)) (x159 (= x26 x127)) (x147 (= x133 x103)) (x11 (= x112 x133)) (x16 (= x85 x152)) (x46 (= x26 x71)) (x150 (= x26 x85)) (x157 (= x71 x86)) (x34 (= x152 x78)) (x91 (= x86 x84)) (x7 (= x86 x83)) (x119 (= x152 x87)) (x135 (= x133 x78)) (x131 (= x117 x86)) (x41 (= x38 x26)) (x69 (= x26 x83)) (x96 (= x98 x26)) (x128 (= x101 x107)) (x76 (= x112 x26)) (x37 (= x55 x133)) (x123 (= x24 x152))) (and (and (and (and (and (and (and (or (or (or x39 (or x34 x137)) x32) x53) (or (or (or x65 (or x123 x137)) x156) x15)) (and (and (or (or x122 (or (or x72 x142) x113)) x40) (or (or x19 (or (or x142 x28) x43)) x91)) (and (and (or x97 (or x11 (or (or x30 x138) x145))) (or (or (or (or x30 x135) x62) x92) x74)) (and (or (or x128 (or x9 (or x129 x48))) x148) (or (or x57 (or (or x77 x48) x3)) x49))))) (and (or (or (or x89 (or x116 x75)) x76) x144) (or (or x153 (or (or x99 x116) x96)) x94))) (and (and (or (or x139 (or x80 (or x41 x99))) x120) (or (or (or (or x75 x41) x95) x159) x130)) (and (and (and (or (or x44 (or (or x50 x72) x131)) x52) (or (or (or (or x50 x28) x114) x51) x27)) (and (and (or (or (or x66 (or x77 x67)) x105) x134) (or (or (or x141 (or x129 x67)) x110) x2)) (and (or x21 (or x37 (or x100 (or x111 x135)))) (or x158 (or (or x93 (or x111 x138)) x125))))) (and (or x118 (or x115 (or (or x34 x88) x5))) (or x35 (or (or (or x88 x123) x81) x132)))))) (and (and (or (or (or x13 (or x80 x89)) x126) x69) (or (or x6 (or (or x95 x96) x13)) x18)) (and (and (and (and (or (or x147 (or (or x145 x100) x25)) x59) (or (or (or x25 (or x62 x93)) x143) x31)) (and (or x149 (or (or (or x3 x141) x14) x10)) (or (or (or (or x66 x9) x14) x22) x33))) (and (or x102 (or (or (or x131 x43) x73) x121)) (or (or x42 (or (or x113 x114) x73)) x7))) (and (or (or (or (or x65 x5) x90) x4) x124) (or (or (or x90 (or x39 x81)) x29) x54))))) (and (and (or (or (or x126 (or x159 x153)) x17) x68) (or x150 (or x17 (or (or x76 x139) x6)))) (and (and (and (or x64 (or x104 (or x42 (or x44 x19)))) (or (or (or x121 (or x122 x51)) x104) x36)) (and (and (or x146 (or x20 (or (or x92 x125) x147))) (or (or x20 (or x143 (or x37 x11))) x79)) (and (or x154 (or x70 (or x10 (or x128 x105)))) (or x63 (or (or x22 (or x57 x110)) x70))))) (and (or (or (or x4 (or x132 x32)) x136) x119) (or x16 (or x136 (or x29 (or x156 x115)))))))) (and (and (or x46 (or (or (or x120 x144) x18) x68)) (or x46 (or x150 (or (or x94 x130) x69)))) (and (and (or (or (or (or x53 x35) x124) x16) x60) (or x60 (or x119 (or (or x15 x118) x54)))) (and (and (or x157 (or (or (or x27 x40) x102) x64)) (or (or (or (or x52 x91) x7) x36) x157)) (and (and (or x108 (or (or (or x49 x2) x33) x154)) (or x108 (or (or x149 (or x134 x148)) x63))) (and (or (or (or (or x21 x97) x31) x146) x1) (or (or x79 (or x59 (or x74 x158))) x1))))))))))
(assert (let ((x111 (x61 x152 x26)) (x78 (x61 x133 x86)) (x137 (x61 x133 x152)) (x98 (x61 x86 x86)) (x106 (x61 x133 x101)) (x34 (x61 x101 x152)) (x67 (x61 x26 x101)) (x8 (x61 x133 x26)) (x72 (x61 x101 x86)) (x107 (x61 x152 x101)) (x45 (x61 x133 x133)) (x116 (x61 x152 x86)) (x56 (x61 x101 x133)) (x127 (x61 x101 x101)) (x88 (x61 x101 x26)) (x55 (x61 x26 x86)) (x77 (x61 x152 x152)) (x38 (x61 x26 x133)) (x129 (x61 x86 x152)) (x140 (x61 x86 x26)) (x30 (x61 x86 x133)) (x142 (x61 x152 x133)) (x138 (x61 x26 x152)) (x117 (x61 x26 x26)) (x112 (x61 x86 x101))) (let ((x28 (not (= x106 x133))) (x93 (not (= x152 x116))) (x50 (not (= x112 x86))) (x62 (not (= x86 x98))) (x47 (not (= x77 x152))) (x14 (not (= x26 x38))) (x145 (not (= x26 x138))) (x151 (not (= x55 x26))) (x41 (not (= x133 x78))) (x9 (not (= x30 x86))) (x103 (not (= x117 x26))) (x141 (not (= x133 x8))) (x66 (not (= x137 x133))) (x75 (not (= x133 x45))) (x99 (not (= x26 x67))) (x24 (not (= x101 x56))) (x48 (not (= x127 x101))) (x123 (not (= x152 x107))) (x12 (not (= x101 x72))) (x3 (not (= x152 x142))) (x84 (not (= x101 x34))) (x100 (not (= x86 x140))) (x135 (not (= x101 x88))) (x25 (not (= x111 x152))) (x109 (not (= x86 x129)))) (or (or (or (and (and (and (or x25 (not (= x86 x138))) (and (and (or (not (= x86 x67)) x135) (or (not (= x38 x86)) x141)) (or (not (= x55 x86)) x100))) (or (not (= x117 x86)) x103)) (and (and (and (or (not (= x86 x77)) x47) (and (and (or x66 (not (= x86 x142))) (or x84 (not (= x107 x86)))) (or (not (= x116 x86)) x109))) (or (not (= x111 x86)) x145)) (and (and (and (or x99 (not (= x86 x88))) (and (and (and (or x48 (not (= x86 x127))) (or (not (= x86 x56)) x28)) (or (not (= x86 x72)) x50)) (or x123 (not (= x86 x34))))) (and (or x14 (not (= x8 x86))) (and (and (or (not (= x78 x86)) x9) (and (or x75 (not (= x86 x45))) (or x24 (not (= x106 x86))))) (or (not (= x86 x137)) x3)))) (and (and (or x93 x109) (and (and (or x9 x41) (or x12 x50)) (or x62 x62))) (or x100 x151))))) (or (and (and (and (and (and (or (not (= x101 x38)) x141) (or (not (= x101 x67)) x135)) (or x100 (not (= x101 x55)))) (or (not (= x138 x101)) x25)) (or x103 (not (= x101 x117)))) (and (and (or x145 (not (= x111 x101))) (and (or (not (= x77 x101)) x47) (and (and (or x66 (not (= x101 x142))) (or (not (= x107 x101)) x84)) (or (not (= x116 x101)) x109)))) (and (and (and (and (and (and (or (not (= x101 x45)) x75) (or x24 (not (= x106 x101)))) (or x9 (not (= x78 x101)))) (or (not (= x101 x137)) x3)) (or x14 (not (= x8 x101)))) (and (and (or x84 x123) (and (and (or x48 x48) (or x24 x28)) (or x12 x50))) (or x135 x99))) (and (and (and (or (not (= x101 x98)) x62) (and (or x41 (not (= x101 x30))) (or x12 (not (= x101 x112))))) (or x93 (not (= x129 x101)))) (or x151 (not (= x101 x140))))))) (and (and (and (and (or (not (= x77 x133)) x47) (and (and (or (not (= x133 x107)) x84) (or x66 (not (= x142 x133)))) (or x109 (not (= x133 x116))))) (or (not (= x133 x111)) x145)) (and (and (and (or x14 x141) (and (or x3 x66) (and (and (or x75 x75) (or x24 x28)) (or x9 x41)))) (and (or x99 (not (= x133 x88))) (and (and (or x50 (not (= x133 x72))) (and (or (not (= x56 x133)) x28) (or (not (= x127 x133)) x48))) (or x123 (not (= x34 x133)))))) (and (and (and (and (or (not (= x112 x133)) x12) (or x41 (not (= x30 x133)))) (or x62 (not (= x98 x133)))) (or x93 (not (= x133 x129)))) (or x151 (not (= x133 x140)))))) (and (or (not (= x117 x133)) x103) (and (and (and (or x135 (not (= x133 x67))) (or x141 (not (= x38 x133)))) (or (not (= x133 x55)) x100)) (or (not (= x133 x138)) x25)))))) (and (and (and (or x25 (not (= x138 x152))) (and (and (or (not (= x38 x152)) x141) (or x135 (not (= x67 x152)))) (or x100 (not (= x55 x152))))) (or x103 (not (= x152 x117)))) (and (and (and (and (and (or x3 x66) (or x123 x84)) (or x93 x109)) (or x47 x47)) (or x25 x145)) (and (and (and (and (or (not (= x152 x137)) x3) (and (and (or x75 (not (= x152 x45))) (or x24 (not (= x152 x106)))) (or (not (= x152 x78)) x9))) (or (not (= x152 x8)) x14)) (and (and (and (or (not (= x72 x152)) x50) (and (or x28 (not (= x152 x56))) (or (not (= x152 x127)) x48))) (or x123 (not (= x152 x34)))) (or (not (= x88 x152)) x99))) (and (and (and (or x62 (not (= x152 x98))) (and (or x12 (not (= x152 x112))) (or (not (= x30 x152)) x41))) (or x93 (not (= x152 x129)))) (or (not (= x140 x152)) x151)))))) (and (and (and (and (and (or x14 x141) (or x135 x99)) (or x100 x151)) (or x25 x145)) (or x103 x103)) (and (and (and (or x47 (not (= x26 x77))) (and (and (or x84 (not (= x107 x26))) (or x66 (not (= x26 x142)))) (or (not (= x116 x26)) x109))) (or (not (= x111 x26)) x145)) (and (and (and (and (and (and (or (not (= x26 x127)) x48) (or (not (= x26 x56)) x28)) (or x50 (not (= x26 x72)))) (or (not (= x26 x34)) x123)) (or x99 (not (= x88 x26)))) (and (and (or (not (= x137 x26)) x3) (and (and (or x24 (not (= x106 x26))) (or (not (= x45 x26)) x75)) (or x9 (not (= x26 x78))))) (or x14 (not (= x8 x26))))) (and (or (not (= x140 x26)) x151) (and (or (not (= x129 x26)) x93) (and (and (or x41 (not (= x30 x26))) (or x12 (not (= x112 x26)))) (or x62 (not (= x26 x98)))))))))))))
(assert (and (and (and (and (or (or (or (or (= (x61 x101 (x61 x101 x133)) x133) (= x101 (x61 x101 (x61 x101 x101)))) (= x86 (x61 x101 (x61 x101 x86)))) (= (x61 x101 (x61 x101 x152)) x152)) (= (x61 x101 (x61 x101 x26)) x26)) (or (or (or (= x86 (x61 x133 (x61 x133 x86))) (or (= (x61 x133 (x61 x133 x101)) x101) (= (x61 x133 (x61 x133 x133)) x133))) (= x152 (x61 x133 (x61 x133 x152)))) (= (x61 x133 (x61 x133 x26)) x26))) (or (or (or (or (= (x61 x86 (x61 x86 x133)) x133) (= (x61 x86 (x61 x86 x101)) x101)) (= x86 (x61 x86 (x61 x86 x86)))) (= (x61 x86 (x61 x86 x152)) x152)) (= (x61 x86 (x61 x86 x26)) x26))) (or (or (= x152 (x61 x152 (x61 x152 x152))) (or (= (x61 x152 (x61 x152 x86)) x86) (or (= (x61 x152 (x61 x152 x133)) x133) (= (x61 x152 (x61 x152 x101)) x101)))) (= (x61 x152 (x61 x152 x26)) x26))) (or (or (= (x61 x26 (x61 x26 x152)) x152) (or (= (x61 x26 (x61 x26 x86)) x86) (or (= (x61 x26 (x61 x26 x101)) x101) (= x133 (x61 x26 (x61 x26 x133)))))) (= x26 (x61 x26 (x61 x26 x26))))))
(assert (or (and (not (= x26 (x61 (x61 x26 x26) x26))) (and (and (and (not (= (x61 (x61 x26 x101) x26) x101)) (not (= x133 (x61 (x61 x26 x133) x26)))) (not (= x86 (x61 (x61 x26 x86) x26)))) (not (= x152 (x61 (x61 x26 x152) x26))))) (or (and (and (not (= (x61 (x61 x152 x152) x152) x152)) (and (and (not (= (x61 (x61 x152 x101) x152) x101)) (not (= x133 (x61 (x61 x152 x133) x152)))) (not (= x86 (x61 (x61 x152 x86) x152))))) (not (= (x61 (x61 x152 x26) x152) x26))) (or (or (and (and (not (= x152 (x61 (x61 x133 x152) x133))) (and (not (= (x61 (x61 x133 x86) x133) x86)) (and (not (= x133 (x61 (x61 x133 x133) x133))) (not (= (x61 (x61 x133 x101) x133) x101))))) (not (= x26 (x61 (x61 x133 x26) x133)))) (and (not (= x26 (x61 (x61 x101 x26) x101))) (and (and (and (not (= (x61 (x61 x101 x101) x101) x101)) (not (= x133 (x61 (x61 x101 x133) x101)))) (not (= x86 (x61 (x61 x101 x86) x101)))) (not (= (x61 (x61 x101 x152) x101) x152))))) (and (not (= x26 (x61 (x61 x86 x26) x86))) (and (not (= x152 (x61 (x61 x86 x152) x86))) (and (not (= (x61 (x61 x86 x86) x86) x86)) (and (not (= (x61 (x61 x86 x101) x86) x101)) (not (= x133 (x61 (x61 x86 x133) x86)))))))))))
(assert (or (and (and (and (not (= (x61 (x61 x86 x26) x26) x86)) (and (not (= x101 (x61 (x61 x101 x26) x26))) (not (= x133 (x61 (x61 x133 x26) x26))))) (not (= (x61 (x61 x152 x26) x26) x152))) (not (= (x61 (x61 x26 x26) x26) x26))) (or (or (or (and (not (= x26 (x61 (x61 x26 x101) x101))) (and (and (and (not (= x101 (x61 (x61 x101 x101) x101))) (not (= (x61 (x61 x133 x101) x101) x133))) (not (= (x61 (x61 x86 x101) x101) x86))) (not (= (x61 (x61 x152 x101) x101) x152)))) (and (not (= x26 (x61 (x61 x26 x133) x133))) (and (not (= x152 (x61 (x61 x152 x133) x133))) (and (and (not (= (x61 (x61 x101 x133) x133) x101)) (not (= x133 (x61 (x61 x133 x133) x133)))) (not (= x86 (x61 (x61 x86 x133) x133))))))) (and (not (= (x61 (x61 x26 x86) x86) x26)) (and (not (= x152 (x61 (x61 x152 x86) x86))) (and (not (= x86 (x61 (x61 x86 x86) x86))) (and (not (= x101 (x61 (x61 x101 x86) x86))) (not (= x133 (x61 (x61 x133 x86) x86)))))))) (and (and (not (= x152 (x61 (x61 x152 x152) x152))) (and (and (not (= x133 (x61 (x61 x133 x152) x152))) (not (= (x61 (x61 x101 x152) x152) x101))) (not (= x86 (x61 (x61 x86 x152) x152))))) (not (= (x61 (x61 x26 x152) x152) x26))))))
(assert (and (and (or (or (= x152 (x61 x152 (x61 x152 x152))) (or (or (= x152 (x61 x133 (x61 x152 x133))) (= (x61 x101 (x61 x152 x101)) x152)) (= x152 (x61 x86 (x61 x152 x86))))) (= (x61 x26 (x61 x152 x26)) x152)) (and (and (or (or (= (x61 x152 (x61 x101 x152)) x101) (or (or (= x101 (x61 x133 (x61 x101 x133))) (= x101 (x61 x101 (x61 x101 x101)))) (= x101 (x61 x86 (x61 x101 x86))))) (= (x61 x26 (x61 x101 x26)) x101)) (or (= (x61 x26 (x61 x133 x26)) x133) (or (= (x61 x152 (x61 x133 x152)) x133) (or (= (x61 x86 (x61 x133 x86)) x133) (or (= x133 (x61 x101 (x61 x133 x101))) (= (x61 x133 (x61 x133 x133)) x133)))))) (or (or (or (= x86 (x61 x86 (x61 x86 x86))) (or (= (x61 x101 (x61 x86 x101)) x86) (= (x61 x133 (x61 x86 x133)) x86))) (= (x61 x152 (x61 x86 x152)) x86)) (= x86 (x61 x26 (x61 x86 x26)))))) (or (= x26 (x61 x26 (x61 x26 x26))) (or (= (x61 x152 (x61 x26 x152)) x26) (or (= (x61 x86 (x61 x26 x86)) x26) (or (= (x61 x101 (x61 x26 x101)) x26) (= (x61 x133 (x61 x26 x133)) x26)))))))
(assert (or (or (and (and (and (and (not (= x133 (x61 (x61 x133 x152) x133))) (not (= (x61 (x61 x101 x152) x101) x101))) (not (= x86 (x61 (x61 x86 x152) x86)))) (not (= x152 (x61 (x61 x152 x152) x152)))) (not (= x26 (x61 (x61 x26 x152) x26)))) (or (or (and (not (= (x61 (x61 x26 x101) x26) x26)) (and (not (= x152 (x61 (x61 x152 x101) x152))) (and (and (not (= (x61 (x61 x101 x101) x101) x101)) (not (= (x61 (x61 x133 x101) x133) x133))) (not (= (x61 (x61 x86 x101) x86) x86))))) (and (and (not (= x152 (x61 (x61 x152 x133) x152))) (and (not (= (x61 (x61 x86 x133) x86) x86)) (and (not (= (x61 (x61 x101 x133) x101) x101)) (not (= x133 (x61 (x61 x133 x133) x133)))))) (not (= (x61 (x61 x26 x133) x26) x26)))) (and (not (= (x61 (x61 x26 x86) x26) x26)) (and (not (= (x61 (x61 x152 x86) x152) x152)) (and (not (= x86 (x61 (x61 x86 x86) x86))) (and (not (= x101 (x61 (x61 x101 x86) x101))) (not (= (x61 (x61 x133 x86) x133) x133)))))))) (and (not (= (x61 (x61 x26 x26) x26) x26)) (and (and (and (not (= (x61 (x61 x101 x26) x101) x101)) (not (= (x61 (x61 x133 x26) x133) x133))) (not (= x86 (x61 (x61 x86 x26) x86)))) (not (= (x61 (x61 x152 x26) x152) x152))))))
(assert (let ((x24 (x61 x133 x133)) (x12 (x61 x26 x26)) (x106 (x61 x101 x101)) (x45 (x61 x86 x86)) (x112 (x61 x152 x152))) (let ((x78 (= x24 x133)) (x137 (= x86 x45)) (x129 (= x12 x26)) (x48 (= x101 x106)) (x116 (= x152 x112))) (let ((x107 (and (not (= x12 x86)) (and (and (and (not (= x86 x106)) (not (= x86 x24))) (not x137)) (not (= x86 x112))))) (x30 (and (and (and (and (not (= x101 x24)) (not x48)) (not (= x101 x45))) (not (= x101 x112))) (not (= x12 x101)))) (x142 (and (and (not (= x112 x26)) (and (and (not (= x26 x24)) (not (= x106 x26))) (not (= x45 x26)))) (not x129))) (x84 (and (and (and (not (= x45 x152)) (and (not (= x152 x106)) (not (= x152 x24)))) (not x116)) (not (= x12 x152)))) (x98 (and (not (= x12 x133)) (and (and (not (= x133 x45)) (and (not x78) (not (= x106 x133)))) (not (= x133 x112)))))) (or (or (or (or (or (and (= (x61 x86 x152) x86) x84) (or (or (and x30 (= x86 (x61 x86 x101))) (and (= (x61 x86 x133) x86) x98)) (and x137 x107))) (and (= (x61 x86 x26) x86) x142)) (or (or (or (or (or (and x98 (= x101 (x61 x101 x133))) (and x48 x30)) (and (= x101 (x61 x101 x86)) x107)) (and (= (x61 x101 x152) x101) x84)) (and x142 (= x101 (x61 x101 x26)))) (or (or (and (= x133 (x61 x133 x152)) x84) (or (or (and x30 (= (x61 x133 x101) x133)) (and x98 x78)) (and x107 (= x133 (x61 x133 x86))))) (and x142 (= (x61 x133 x26) x133))))) (or (or (or (or (and x30 (= (x61 x152 x101) x152)) (and (= x152 (x61 x152 x133)) x98)) (and (= x152 (x61 x152 x86)) x107)) (and x84 x116)) (and x142 (= x152 (x61 x152 x26))))) (or (or (and x84 (= x26 (x61 x26 x152))) (or (and (= (x61 x26 x86) x26) x107) (or (and x98 (= x26 (x61 x26 x133))) (and (= (x61 x26 x101) x26) x30)))) (and x142 x129)))))))
(assert (let ((x67 (x61 x152 x133)) (x111 (x61 x26 x152)) (x107 (x61 x133 x26)) (x129 (x61 x86 x26)) (x98 (x61 x133 x152)) (x77 (x61 x152 x101)) (x45 (x61 x101 x152)) (x106 (x61 x101 x133)) (x138 (x61 x26 x86)) (x117 (x61 x26 x26)) (x24 (x61 x101 x86)) (x84 (x61 x86 x101)) (x116 (x61 x86 x152)) (x12 (x61 x133 x101)) (x48 (x61 x101 x101)) (x112 (x61 x101 x26)) (x137 (x61 x86 x86)) (x38 (x61 x152 x152)) (x142 (x61 x86 x133)) (x135 (x61 x152 x86)) (x140 (x61 x26 x133)) (x30 (x61 x133 x133)) (x8 (x61 x152 x26)) (x55 (x61 x26 x101)) (x78 (x61 x133 x86))) (or (and (not (= (x61 x117 x117) x26)) (and (and (not (= (x61 x138 x138) x86)) (and (not (= (x61 x55 x55) x101)) (not (= (x61 x140 x140) x133)))) (not (= x152 (x61 x111 x111))))) (or (or (and (not (= x26 (x61 x129 x129))) (and (and (not (= x86 (x61 x137 x137))) (and (not (= (x61 x142 x142) x133)) (not (= (x61 x84 x84) x101)))) (not (= (x61 x116 x116) x152)))) (or (and (and (not (= x152 (x61 x98 x98))) (and (and (not (= x133 (x61 x30 x30))) (not (= (x61 x12 x12) x101))) (not (= x86 (x61 x78 x78))))) (not (= x26 (x61 x107 x107)))) (and (and (not (= (x61 x45 x45) x152)) (and (and (not (= x101 (x61 x48 x48))) (not (= x133 (x61 x106 x106)))) (not (= (x61 x24 x24) x86)))) (not (= (x61 x112 x112) x26))))) (and (not (= x26 (x61 x8 x8))) (and (and (and (not (= (x61 x67 x67) x133)) (not (= (x61 x77 x77) x101))) (not (= x86 (x61 x135 x135)))) (not (= x152 (x61 x38 x38)))))))))
(assert (let ((x66 (x61 x133 x133)) (x93 (x61 x152 x133)) (x131 (x61 x152 x86)) (x28 (x61 x101 x133)) (x127 (x61 x101 x101)) (x80 (x61 x26 x152)) (x34 (x61 x86 x101)) (x62 (x61 x133 x152)) (x43 (x61 x86 x152)) (x75 (x61 x26 x101)) (x113 (x61 x86 x26)) (x151 (x61 x133 x26)) (x114 (x61 x26 x86)) (x103 (x61 x86 x86)) (x92 (x61 x26 x26)) (x89 (x61 x152 x26)) (x50 (x61 x101 x86)) (x141 (x61 x133 x86)) (x96 (x61 x152 x152)) (x14 (x61 x86 x133)) (x123 (x61 x101 x152)) (x72 (x61 x133 x101)) (x109 (x61 x26 x133)) (x99 (x61 x101 x26)) (x88 (x61 x152 x101))) (let ((x112 (not (= x101 x34))) (x137 (not (= x101 x62))) (x94 (not (= x75 x26))) (x25 (not (= x133 x141))) (x41 (not (= x72 x133))) (x29 (not (= x86 x114))) (x106 (not (= x72 x101))) (x138 (not (= x101 x80))) (x116 (not (= x131 x101))) (x33 (not (= x123 x152))) (x3 (not (= x66 x133))) (x126 (not (= x86 x92))) (x31 (not (= x114 x152))) (x128 (not (= x133 x99))) (x55 (not (= x114 x101))) (x90 (not (= x43 x133))) (x73 (not (= x133 x88))) (x140 (not (= x113 x101))) (x85 (not (= x141 x86))) (x56 (not (= x133 x127))) (x4 (not (= x86 x99))) (x121 (not (= x86 x131))) (x134 (not (= x50 x152))) (x17 (not (= x66 x152))) (x18 (not (= x80 x26))) (x142 (not (= x93 x101))) (x95 (not (= x133 x96))) (x37 (not (= x34 x86))) (x19 (not (= x103 x86))) (x74 (not (= x131 x152))) (x7 (not (= x127 x26))) (x78 (not (= x141 x101))) (x48 (not (= x127 x101))) (x67 (not (= x101 x75))) (x122 (not (= x93 x86))) (x115 (not (= x86 x151))) (x136 (not (= x86 x113))) (x5 (not (= x133 x131))) (x147 (not (= x127 x86))) (x27 (not (= x66 x26))) (x23 (not (= x72 x86))) (x76 (not (= x127 x152))) (x84 (not (= x101 x123))) (x42 (not (= x123 x86))) (x97 (not (= x152 x109))) (x124 (not (= x88 x26))) (x98 (not (= x103 x101))) (x21 (not (= x152 x151))) (x105 (not (= x109 x133))) (x125 (not (= x92 x133))) (x87 (not (= x86 x28))) (x91 (not (= x89 x152))) (x130 (not (= x99 x26))) (x63 (not (= x141 x152))) (x117 (not (= x101 x92))) (x159 (not (= x89 x86))) (x64 (not (= x50 x26))) (x32 (not (= x86 x96))) (x81 (not (= x93 x133))) (x20 (not (= x86 x14))) (x13 (not (= x133 x75))) (x65 (not (= x133 x62))) (x149 (not (= x152 x14))) (x36 (not (= x26 x72))) (x132 (not (= x86 x75))) (x100 (not (= x14 x133))) (x38 (not (= x101 x109))) (x16 (not (= x123 x26))) (x77 (not (= x101 x96))) (x11 (not (= x86 x66))) (x150 (not (= x26 x151))) (x49 (not (= x152 x103))) (x53 (not (= x26 x141))) (x157 (not (= x14 x26))) (x15 (not (= x93 x26))) (x46 (not (= x26 x92))) (x40 (not (= x26 x28))) (x52 (not (= x152 x92))) (x12 (not (= x50 x101))) (x1 (not (= x152 x80))) (x2 (not (= x88 x152))) (x158 (not (= x152 x43))) (x69 (not (= x109 x26))) (x153 (not (= x80 x86))) (x102 (not (= x26 x34))) (x79 (not (= x75 x152))) (x110 (not (= x133 x113))) (x108 (not (= x62 x152))) (x120 (not (= x113 x26))) (x83 (not (= x133 x103))) (x6 (not (= x152 x28))) (x10 (not (= x133 x151))) (x135 (not (= x101 x99))) (x143 (not (= x50 x86))) (x156 (not (= x86 x109))) (x145 (not (= x50 x133))) (x39 (not (= x123 x133))) (x59 (not (= x96 x152))) (x144 (not (= x26 x114))) (x129 (not (= x43 x101))) (x22 (not (= x80 x133))) (x104 (not (= x86 x43))) (x47 (not (= x34 x133))) (x44 (not (= x86 x88))) (x54 (not (= x131 x26))) (x71 (not (= x99 x152))) (x107 (not (= x101 x88))) (x111 (not (= x101 x89))) (x154 (not (= x152 x93))) (x35 (not (= x26 x103))) (x57 (not (= x133 x114))) (x118 (not (= x62 x26))) (x8 (not (= x101 x151))) (x9 (not (= x133 x28))) (x51 (not (= x62 x86))) (x24 (not (= x101 x28))) (x146 (not (= x113 x152))) (x70 (not (= x133 x89))) (x30 (not (= x101 x14))) (x45 (not (= x101 x66))) (x60 (not (= x26 x96))) (x68 (not (= x89 x26))) (x148 (not (= x152 x34))) (x119 (not (= x43 x26))) (x139 (not (= x152 x72)))) (or (and (and (and (or x18 x68) (and (or x144 x120) (and (or x94 x130) (or x150 x69)))) (or x46 x46)) (and (and (and (and (or x119 x54) (and (and (or x102 x64) (or x157 x53)) (or x35 x35))) (or x144 x120)) (and (and (or x94 x130) (and (and (and (or x7 x7) (or x40 x36)) (or x102 x64)) (or x124 x16))) (and (or x150 x69) (and (or x118 x15) (and (and (or x36 x40) (or x27 x27)) (or x53 x157)))))) (and (or x18 x68) (and (or x60 x60) (and (and (or x118 x15) (or x16 x124)) (or x54 x119)))))) (or (or (or (and (and (and (or x111 x138) (and (and (or x116 x129) (and (or x142 x137) (or x84 x107))) (or x77 x77))) (and (and (and (or x135 x67) (and (and (and (or x48 x48) (or x106 x24)) (or x112 x12)) (or x107 x84))) (and (and (and (or x30 x78) (and (or x45 x45) (or x24 x106))) (or x137 x142)) (or x38 x8))) (and (and (or x116 x129) (and (and (or x30 x78) (or x112 x12)) (or x98 x98))) (or x140 x55)))) (and (or x117 x117) (and (and (or x140 x55) (and (or x67 x135) (or x38 x8))) (or x111 x138)))) (and (and (and (and (and (and (or x73 x39) (and (and (or x56 x56) (or x41 x9)) (or x145 x47))) (or x128 x13)) (and (and (and (and (or x3 x3) (or x9 x41)) (or x100 x25)) (or x65 x81)) (or x105 x10))) (and (or x57 x110) (and (and (or x83 x83) (and (or x47 x145) (or x100 x25))) (or x5 x90)))) (and (or x70 x22) (and (and (or x5 x90) (and (or x65 x81) (or x73 x39))) (or x95 x95)))) (and (or x125 x125) (and (and (or x57 x110) (and (or x105 x10) (or x13 x128))) (or x70 x22))))) (and (and (and (or x153 x159) (and (or x136 x29) (and (or x4 x132) (or x156 x115)))) (or x126 x126)) (and (and (and (or x136 x29) (and (and (and (or x85 x20) (or x37 x143)) (or x19 x19)) (or x104 x121))) (and (and (or x132 x4) (and (and (or x143 x37) (and (or x23 x87) (or x147 x147))) (or x42 x44))) (and (or x115 x156) (and (or x51 x122) (and (and (or x11 x11) (or x23 x87)) (or x85 x20)))))) (and (or x153 x159) (and (and (and (or x42 x44) (or x51 x122)) (or x121 x104)) (or x32 x32)))))) (and (and (and (or x1 x91) (and (or x59 x59) (and (or x158 x74) (and (or x108 x154) (or x33 x2))))) (and (and (and (and (or x154 x108) (and (and (or x139 x6) (or x17 x17)) (or x63 x149))) (or x21 x97)) (and (and (or x2 x33) (and (and (or x6 x139) (or x76 x76)) (or x148 x134))) (or x79 x71))) (and (or x31 x146) (and (or x74 x158) (and (or x49 x49) (and (or x134 x148) (or x149 x63))))))) (and (and (and (or x146 x31) (and (or x21 x97) (or x71 x79))) (or x91 x1)) (or x52 x52))))))))
(assert (let ((x38 (x61 x152 x152)) (x84 (x61 x101 x86)) (x106 (x61 x133 x101)) (x111 (x61 x152 x26)) (x24 (x61 x86 x101)) (x117 (x61 x26 x26)) (x98 (x61 x152 x133)) (x129 (x61 x26 x86)) (x137 (x61 x86 x86)) (x45 (x61 x152 x101)) (x12 (x61 x101 x133)) (x142 (x61 x133 x86)) (x112 (x61 x26 x101)) (x48 (x61 x101 x101)) (x67 (x61 x133 x152)) (x138 (x61 x86 x26)) (x78 (x61 x86 x133)) (x135 (x61 x86 x152)) (x107 (x61 x26 x133)) (x55 (x61 x101 x26)) (x77 (x61 x101 x152)) (x8 (x61 x26 x152)) (x116 (x61 x152 x86)) (x140 (x61 x133 x26)) (x30 (x61 x133 x133))) (and (and (and (and (not (= x38 x8)) (and (and (not (= x38 x135)) (and (not (= x8 x67)) (and (not (= x38 x67)) (and (not (= x67 x135)) (and (not (= x8 x77)) (and (not (= x77 x38)) (and (not (= x135 x77)) (not (= x67 x77))))))))) (not (= x8 x135)))) (and (and (and (not (= x98 x107)) (and (and (and (and (not (= x98 x30)) (and (and (not (= x12 x107)) (and (and (not (= x78 x12)) (not (= x12 x30))) (not (= x12 x98)))) (not (= x78 x30)))) (not (= x107 x30))) (not (= x98 x78))) (not (= x78 x107)))) (and (and (not (= x112 x24)) (and (not (= x45 x24)) (and (and (and (and (and (not (= x48 x45)) (and (not (= x106 x48)) (not (= x48 x24)))) (not (= x48 x112))) (not (= x106 x24))) (not (= x106 x45))) (not (= x112 x106))))) (not (= x112 x45)))) (and (not (= x116 x129)) (and (not (= x129 x137)) (and (and (not (= x129 x142)) (and (not (= x116 x142)) (and (and (and (and (not (= x84 x142)) (not (= x137 x84))) (not (= x116 x84))) (not (= x129 x84))) (not (= x142 x137))))) (not (= x137 x116))))))) (and (and (and (and (not (= x140 x117)) (and (and (and (and (not (= x55 x111)) (and (not (= x55 x138)) (not (= x140 x55)))) (not (= x55 x117))) (not (= x138 x140))) (not (= x140 x111)))) (not (= x138 x111))) (not (= x138 x117))) (not (= x117 x111)))) (and (and (and (and (and (and (and (and (not (= x116 x98)) (and (not (= x45 x111)) (and (not (= x45 x38)) (and (not (= x116 x45)) (not (= x98 x45)))))) (not (= x98 x38))) (not (= x111 x98))) (not (= x38 x116))) (not (= x111 x116))) (not (= x111 x38))) (and (and (and (not (= x77 x55)) (and (not (= x55 x84)) (and (and (and (not (= x12 x77)) (and (and (and (not (= x48 x77)) (and (not (= x48 x12)) (not (= x48 x84)))) (not (= x55 x48))) (not (= x84 x12)))) (not (= x55 x12))) (not (= x77 x84))))) (and (not (= x140 x67)) (and (and (not (= x142 x67)) (and (and (and (not (= x142 x30)) (and (and (and (not (= x30 x106)) (not (= x106 x142))) (not (= x106 x67))) (not (= x106 x140)))) (not (= x67 x30))) (not (= x140 x30)))) (not (= x142 x140))))) (and (and (and (and (not (= x78 x138)) (and (not (= x78 x135)) (and (and (not (= x138 x24)) (and (and (not (= x78 x24)) (not (= x137 x24))) (not (= x135 x24)))) (not (= x137 x78))))) (not (= x135 x137))) (not (= x138 x137))) (not (= x135 x138))))) (and (not (= x8 x117)) (and (not (= x129 x117)) (and (and (not (= x107 x117)) (and (not (= x8 x107)) (and (and (and (not (= x112 x8)) (and (not (= x112 x107)) (not (= x129 x112)))) (not (= x117 x112))) (not (= x129 x107))))) (not (= x129 x8)))))))))
(assert (let ((x142 (x61 x86 x133)) (x135 (x61 x152 x86)) (x78 (x61 x133 x86)) (x67 (x61 x152 x133)) (x8 (x61 x152 x26)) (x112 (x61 x101 x26)) (x107 (x61 x133 x26)) (x137 (x61 x86 x86)) (x55 (x61 x26 x101)) (x84 (x61 x86 x101)) (x45 (x61 x101 x152)) (x116 (x61 x86 x152)) (x38 (x61 x152 x152)) (x140 (x61 x26 x133)) (x77 (x61 x152 x101)) (x111 (x61 x26 x152)) (x129 (x61 x86 x26)) (x48 (x61 x101 x101)) (x12 (x61 x133 x101)) (x98 (x61 x133 x152)) (x138 (x61 x26 x86)) (x24 (x61 x101 x86)) (x30 (x61 x133 x133)) (x106 (x61 x101 x133)) (x117 (x61 x26 x26))) (and (and (and (and (and (and (and (and (or (or (or (= x48 x86) (or (= x48 x133) (= x48 x101))) (= x152 x48)) (= x48 x26)) (or (= x106 x26) (or (= x152 x106) (or (= x106 x86) (or (= x106 x101) (= x133 x106)))))) (or (or (or (= x24 x86) (or (= x24 x133) (= x101 x24))) (= x152 x24)) (= x26 x24))) (or (or (or (= x86 x45) (or (= x45 x101) (= x45 x133))) (= x45 x152)) (= x45 x26))) (or (= x112 x26) (or (or (= x86 x112) (or (= x133 x112) (= x101 x112))) (= x112 x152)))) (and (or (= x107 x26) (or (= x152 x107) (or (or (= x107 x133) (= x107 x101)) (= x86 x107)))) (and (and (or (or (= x152 x78) (or (= x86 x78) (or (= x78 x133) (= x101 x78)))) (= x26 x78)) (and (or (= x26 x30) (or (= x152 x30) (or (= x86 x30) (or (= x30 x101) (= x30 x133))))) (or (= x12 x26) (or (= x12 x152) (or (= x12 x86) (or (= x12 x101) (= x133 x12))))))) (or (or (= x152 x98) (or (= x86 x98) (or (= x133 x98) (= x101 x98)))) (= x98 x26))))) (and (or (or (or (= x86 x129) (or (= x101 x129) (= x129 x133))) (= x129 x152)) (= x26 x129)) (and (or (= x116 x26) (or (= x152 x116) (or (= x116 x86) (or (= x133 x116) (= x101 x116))))) (and (or (or (= x152 x137) (or (or (= x137 x133) (= x101 x137)) (= x137 x86))) (= x137 x26)) (and (or (or (or (or (= x142 x133) (= x142 x101)) (= x86 x142)) (= x142 x152)) (= x26 x142)) (or (= x26 x84) (or (or (= x84 x86) (or (= x133 x84) (= x84 x101))) (= x152 x84)))))))) (and (and (and (and (or (or (= x152 x67) (or (= x86 x67) (or (= x67 x101) (= x133 x67)))) (= x67 x26)) (or (or (= x152 x77) (or (= x77 x86) (or (= x77 x101) (= x77 x133)))) (= x26 x77))) (or (= x135 x26) (or (= x135 x152) (or (or (= x135 x133) (= x101 x135)) (= x86 x135))))) (or (= x38 x26) (or (or (or (= x38 x133) (= x38 x101)) (= x86 x38)) (= x38 x152)))) (or (= x8 x26) (or (or (= x86 x8) (or (= x8 x101) (= x133 x8))) (= x152 x8))))) (and (and (and (or (or (or (= x86 x138) (or (= x133 x138) (= x101 x138))) (= x152 x138)) (= x26 x138)) (and (or (or (= x152 x55) (or (= x55 x86) (or (= x55 x101) (= x55 x133)))) (= x26 x55)) (or (or (= x152 x140) (or (or (= x140 x101) (= x133 x140)) (= x86 x140))) (= x26 x140)))) (or (= x111 x26) (or (= x152 x111) (or (= x111 x86) (or (= x133 x111) (= x101 x111)))))) (or (= x117 x26) (or (or (or (= x133 x117) (= x117 x101)) (= x117 x86)) (= x152 x117)))))))
(assert (not (and (and (and (and (and (= x152 (x61 x26 x101)) (and (and (and (and (and (= x133 (x61 x152 x101)) (and (and (= (x61 x86 x152) x152) (and (= (x61 x86 x86) x101) (and (= (x61 x86 x133) x86) (and (= (x61 x86 x101) x26) (and (= (x61 x133 x26) x26) (and (and (and (and (= (x61 x133 x101) x86) (and (and (= x26 (x61 x101 x152)) (and (and (= (x61 x101 x101) x101) (= (x61 x101 x133) x152)) (= x133 (x61 x101 x86)))) (= x86 (x61 x101 x26)))) (= (x61 x133 x133) x133)) (= (x61 x133 x86) x152)) (= x101 (x61 x133 x152)))))))) (= (x61 x86 x26) x133))) (= x101 (x61 x152 x133))) (= x26 (x61 x152 x86))) (= x86 (x61 x152 x152))) (= (x61 x152 x26) x152))) (= x26 (x61 x26 x133))) (= x86 (x61 x26 x86))) (= (x61 x26 x152) x133)) (= (x61 x26 x26) x101))))
(assert (let ((x45 (x61 x152 x152)) (x112 (x61 x26 x26)) (x24 (x61 x86 x86)) (x106 (x61 x133 x133)) (x48 (x61 x101 x101))) (or (and (not (= x26 x112)) (and (not (= x45 x26)) (and (and (not (= x48 x26)) (not (= x26 x106))) (not (= x26 x24))))) (or (or (and (not (= x86 x112)) (and (and (and (not (= x86 x48)) (not (= x106 x86))) (not (= x86 x24))) (not (= x86 x45)))) (or (and (not (= x112 x133)) (and (and (not (= x24 x133)) (and (not (= x106 x133)) (not (= x133 x48)))) (not (= x45 x133)))) (and (and (and (not (= x101 x24)) (and (not (= x101 x48)) (not (= x106 x101)))) (not (= x45 x101))) (not (= x101 x112))))) (and (not (= x152 x112)) (and (not (= x45 x152)) (and (not (= x152 x24)) (and (not (= x48 x152)) (not (= x152 x106))))))))))
(assert (and (and (not (= x86 x26)) (and (not (= x86 x152)) (and (and (and (not (= x86 x133)) (and (not (= x26 x101)) (and (and (not (= x86 x101)) (not (= x133 x101))) (not (= x101 x152))))) (not (= x133 x152))) (not (= x26 x133))))) (not (= x152 x26))))
(assert (or (= (x61 x26 x26) x26) (or (= (x61 x152 x152) x152) (or (= (x61 x86 x86) x86) (or (= x133 (x61 x133 x133)) (= (x61 x101 x101) x101))))))
(check-sat)
(exit)
